c 47_3_checker.cnf
c
c field = 47
c formula set type = 3_checker
c
p cnf 4 30
90 
94 
96 
-98 
91 
95 
97 
-99 
94 
96 
98 
-90 
95 
97 
99 
-91 
94 
96 
98 
-100 
95 
97 
99 
-101 
2 
32 
62 
-122 
3 
33 
63 
-123 
32 
62 
122 
-2 
33 
63 
123 
-3 
32 
62 
122 
-152 
33 
63 
123 
-153 
62 
122 
152 
-32 
63 
123 
153 
-33 
62 
122 
152 
-182 
63 
123 
153 
-183 
122 
152 
182 
-62 
123 
153 
183 
-63 
122 
152 
182 
-212 
123 
153 
183 
-213 
60 
124 
156 
-188 
61 
125 
157 
-189 
124 
156 
188 
-60 
125 
157 
189 
-61 
124 
156 
188 
-220 
125 
157 
189 
-221 
8 
36 
64 
-120 
9 
37 
65 
-121 
36 
64 
120 
-8 
37 
65 
121 
-9 
